(declare-fun temp971_2 () (_ BitVec 64))
(declare-fun temp971_1 () (_ BitVec 64))
(declare-fun temp971_3 () (_ BitVec 64))
(declare-fun temp971_4 () (_ BitVec 64))
(declare-fun var134199 () (_ BitVec 64))
(declare-fun k!0 () Bool)
(declare-fun ARGNAME_split_dim_NAMEEND_NUMELEMENT () (_ BitVec 64))
(declare-fun temp971_5 () (_ BitVec 64))
(declare-fun var396787 () (_ BitVec 64))
(declare-fun temp971_6 () (_ BitVec 64))
(declare-fun ARGNAME_size_splits_NAMEEND_DIM () (_ BitVec 64))
(declare-fun var134243 () (_ BitVec 64))
(declare-fun temp971_7 () (_ BitVec 64))
(declare-fun temp971_8 () (_ BitVec 64))
(declare-fun ARGNAME_value_NAMEEND_DIMSIZE
             ()
             (Array (_ BitVec 64) (_ BitVec 64)))
(declare-fun temp971_9 () (_ BitVec 64))
(declare-fun temp971_10 () (_ BitVec 64))
(declare-fun temp971_11 () (_ BitVec 64))
(declare-fun temp971_12 () (_ BitVec 64))
(declare-fun temp971_13 () (_ BitVec 64))
(declare-fun temp971_14 () (_ BitVec 64))
(declare-fun temp971_15 () (_ BitVec 64))
(declare-fun temp971_16 () (_ BitVec 64))
(declare-fun temp971_17 () (_ BitVec 64))
(declare-fun temp971_18 () (_ BitVec 64))
(declare-fun temp971_19 () (_ BitVec 64))
(declare-fun temp971_20 () (_ BitVec 64))
(declare-fun var134408 () (_ BitVec 64))
(declare-fun var134418 () (_ BitVec 64))
(declare-fun var134410 () (_ BitVec 64))
(declare-fun temp971_21 () (_ BitVec 64))
(declare-fun var134406 () (_ BitVec 64))
(declare-fun var134445 () (_ BitVec 64))
(declare-fun temp971_22 () (_ BitVec 64))
(declare-fun var134450 () (_ BitVec 64))
(declare-fun temp971_23 () (_ BitVec 64))
(declare-fun var134454 () (_ BitVec 64))
(declare-fun temp971_24 () (_ BitVec 64))
(declare-fun var134476 () (_ BitVec 64))
(declare-fun temp971_25 () (_ BitVec 64))
(declare-fun var134479 () (_ BitVec 64))
(declare-fun temp971_26 () (_ BitVec 64))
(declare-fun var134526 () (_ BitVec 64))
(declare-fun temp971_27 () (_ BitVec 64))
(declare-fun var134528 () (_ BitVec 64))
(declare-fun temp971_28 () (_ BitVec 64))
(declare-fun temp971_29 () (_ BitVec 64))
(declare-fun var134547 () (_ BitVec 64))
(declare-fun var134558 () (_ BitVec 64))
(declare-fun temp971_30 () (_ BitVec 64))
(declare-fun var134548 () (_ BitVec 64))
(declare-fun temp971_32 () (_ BitVec 64))
(declare-fun temp971_31 () (_ BitVec 64))
(declare-fun temp971_33 () (_ BitVec 64))
(declare-fun var68294 () (_ BitVec 64))
(assert (= temp971_2 #x0000000000000000))
(assert (= temp971_1 temp971_2))
(assert (= temp971_3 #x0000000000000001))
(assert (= var134199
   (ite (= ARGNAME_split_dim_NAMEEND_NUMELEMENT temp971_3)
        #x0000000000000001
        #x0000000000000000)))
(assert (= temp971_4 #x0000000000000001))
(assert (= var134199 temp971_4))
(assert (= temp971_5 #x0000000000000000))
(assert (= var396787 temp971_5))
(assert (= temp971_6 #x0000000000000001))
(assert (= var134243
   (ite (= ARGNAME_size_splits_NAMEEND_DIM temp971_6)
        #x0000000000000001
        #x0000000000000000)))
(assert (= temp971_7 #x0000000000000001))
(assert (= var134243 temp971_7))
(assert (= temp971_8 #x0000000000000000))
(assert (= temp971_9 (select ARGNAME_value_NAMEEND_DIMSIZE temp971_8)))
(assert (= temp971_10 #x0000000000000001))
(assert (= temp971_11 (select ARGNAME_value_NAMEEND_DIMSIZE temp971_10)))
(assert (= temp971_12 #x0000000000000002))
(assert (= temp971_13 (select ARGNAME_value_NAMEEND_DIMSIZE temp971_12)))
(assert (= temp971_14 #x0000000000000003))
(assert (= temp971_15 (select ARGNAME_value_NAMEEND_DIMSIZE temp971_14)))
(assert (= temp971_16 #x0000000000000004))
(assert (= temp971_17 (select ARGNAME_value_NAMEEND_DIMSIZE temp971_16)))
(assert (= temp971_18 #x0000000000000005))
(assert (= temp971_19 (select ARGNAME_value_NAMEEND_DIMSIZE temp971_18)))
(assert (= temp971_20 #x0000000000000000))
(assert (= var134408 temp971_20))
(assert (= var134418 var134408))
(assert (= var134410 var134418))
(assert (= temp971_21 #x0000000000000001))
(assert (= var134406 (bvadd var134408 temp971_21)))
(assert (= var134445 var134410))
(assert (= temp971_22 #xffffffffffffffff))
(assert (= var134450
   (ite (= var134445 temp971_22) #x0000000000000001 #x0000000000000000)))
(assert (= temp971_23 #xffffffffffffffff))
(assert (= var134454
   (ite (bvsgt var134445 temp971_23) #x0000000000000001 #x0000000000000000)))
(assert (= temp971_24 #xffffffffffffffff))
(assert (= var134476
   (ite (bvsgt var134445 temp971_24) #x0000000000000001 #x0000000000000000)))
(assert (= temp971_25 #x0000000000000001))
(assert (= var134476 temp971_25))
(assert (= var134479 var134445))
(assert (= temp971_26 #x0000000000000013))
(assert (= var134526 temp971_26))
(assert (= temp971_27 #x0000000000000013))
(assert (= var134528
   (ite (= var134526 temp971_27) #x0000000000000001 #x0000000000000000)))
(assert (= temp971_28 #x0000000000000001))
(assert (= var134528 temp971_28))
(assert (= temp971_29 #x0000000000000000))
(assert (= var134547 temp971_29))
(assert (= var134558 var134547))
(assert (= temp971_30 #x0000000000000001))
(assert (= var134548 (bvadd var134547 temp971_30)))
(assert (= temp971_32 #x0000000000000001))
(assert (= temp971_31 temp971_32))
(assert (= temp971_33 #x0000000000000000))
(assert (= var68294
   (ite (= temp971_31 temp971_33) #x0000000000000001 #x0000000000000000)))
(model-add temp971_2 () (_ BitVec 64) #x0000000000000000)
(model-add temp971_1 () (_ BitVec 64) #x0000000000000000)
(model-add temp971_3 () (_ BitVec 64) #x0000000000000001)
(model-add temp971_4 () (_ BitVec 64) #x0000000000000001)
(model-add var134199 () (_ BitVec 64) #x0000000000000001)
(model-del k!0)
(model-add ARGNAME_split_dim_NAMEEND_NUMELEMENT
           ()
           (_ BitVec 64)
           (ite k!0 #x0000000000000001 (bvnot #x0000000000000001)))


